3 3 2
30 1 98 0 128 1 45 2 47 0 144 1 128 0 139 1 149 0 9 2 71 1 169 0 105 2 136 1 30 0 150 2 64 0 13 2 166 0 11 2 71 0 152 1 79 0 94 2 180 1 106 0 92 1 6 2 152 0 10 1 62 
30 0 67 2 11 0 80 2 110 1 92 0 80 2 35 0 139 1 109 2 52 1 28 2 120 0 100 1 172 2 117 1 183 0 103 1 112 0 118 2 73 1 18 0 114 1 24 2 75 0 128 1 8 2 73 0 84 2 57 0 119 
30 1 32 2 161 1 26 2 132 1 23 0 64 2 95 0 57 1 139 2 62 0 98 1 140 0 126 1 191 2 189 1 82 0 33 2 82 0 112 1 196 2 97 0 41 1 199 2 83 0 54 1 168 0 194 1 72 0 54 2 57 

-------------
